; benchmark generated from python API
(set-info :status unknown)
(declare-fun S_1 () Real)
(declare-fun S_5 () Real)
(declare-fun A_4 () Real)
(declare-fun S_4 () Real)
(declare-fun L_1 () Real)
(declare-fun S_3 () Real)
(declare-fun S_2 () Real)
(declare-fun L_0 () Real)
(declare-fun A_0 () Real)
(declare-fun S_0 () Real)
(declare-fun A_1 () Real)
(declare-fun A_2 () Real)
(declare-fun A_3 () Real)
(declare-fun A_5 () Real)
(assert
 (let (($x13122 (<= (+ L_1 (* (- (/ 1.0 2.0)) S_4) (* (- 1.0) A_4) S_5 (* (/ 1.0 2.0) S_1)) 0.0)))
 (let (($x2596 (<= (+ (* (- 1.0) A_0) (* (- 1.0) S_3) (* 2.0 S_1) L_0) 0.0)))
 (let (($x3099 (<= (+ (* (- (/ 1.0 2.0)) S_4) (* (- 1.0) A_0) (* (/ 3.0 2.0) S_1) L_0) 0.0)))
 (let (($x1255 (<= (+ L_1 (* (- 1.0) A_1) (* (- 1.0) S_4) (* 2.0 S_2)) 0.0)))
 (let (($x39 (>= L_0 0.0)))
 (let ((?x4124 (* (/ 2.0 3.0) S_0)))
 (let ((?x451 (* (- 1.0) A_4)))
 (let ((?x443 (* (- 1.0) A_1)))
 (let (($x56 (= L_1 L_0)))
 (let (($x161758 (or $x56 (<= (+ L_1 ?x443 (* (- (/ 2.0 3.0)) S_4) ?x451 A_2 S_5 ?x4124) 0.0))))
 (let (($x20691 (<= (+ L_1 ?x443 (* (- 1.0) A_5) A_3 S_5 (* (- 1.0) S_3) S_0) 0.0)))
 (let (($x26178 (<= (+ L_1 ?x443 (* (- 1.0) S_4) (* (- 1.0) A_5) A_3 S_5 S_1) 0.0)))
 (let (($x162344 (or $x56 (<= (+ L_1 ?x443 ?x451 A_2 S_5 (* (- 1.0) S_3) S_0) 0.0))))
 (let ((?x4103 (* (/ 1.0 3.0) S_0)))
 (let ((?x454 (* (- 1.0) A_5)))
 (let ((?x4096 (* (- (/ 1.0 3.0)) S_4)))
 (let (($x23535 (<= (+ (* (/ 1.0 2.0) L_1) (* (/ 1.0 2.0) A_1) (* (- (/ 1.0 2.0)) S_4) ?x451 S_5) 0.0)))
 (let (($x65095 (or (<= (+ L_1 ?x451 S_5 (* (- (/ 1.0 2.0)) S_3) (* (/ 1.0 2.0) S_0)) 0.0) (<= (+ A_1 ?x451 S_5 (* (- 1.0) S_3)) 0.0))))
 (let ((?x416 (* (- 1.0) S_2)))
 (let ((?x2701 (* (/ 1.0 2.0) S_5)))
 (let ((?x1573 (* (- (/ 1.0 2.0)) A_1)))
 (let ((?x1565 (* (/ 1.0 2.0) L_1)))
 (let (($x62459 (<= (+ ?x1565 ?x1573 (* (- (/ 1.0 2.0)) A_4) (* (/ 1.0 2.0) A_2) ?x2701 ?x416 S_0) 0.0)))
 (let (($x19402 (<= (+ ?x1565 ?x1573 (* (- (/ 1.0 2.0)) A_5) (* (/ 1.0 2.0) A_3) ?x2701 ?x416 S_0) 0.0)))
 (let ((?x2619 (* (/ 3.0 2.0) S_5)))
 (let ((?x430 (* (- 1.0) S_4)))
 (let ((?x17354 (+ (* (/ 3.0 2.0) L_1) (* (- (/ 3.0 2.0)) A_1) ?x430 (* (- (/ 3.0 2.0)) A_5) (* (/ 3.0 2.0) A_3) ?x2619 S_0)))
 (let (($x47573 (<= (+ L_1 ?x443 (* (- 2.0) S_4) ?x451 A_2 S_5 (* 2.0 S_2)) 0.0)))
 (let (($x36211 (<= (+ L_1 ?x443 ?x454 A_3 S_5 (* (- 2.0) S_3) (* 2.0 S_1)) 0.0)))
 (let (($x75552 (not (<= 0.0 (+ S_4 A_4 (* (- 1.0) A_2) (* (- 1.0) S_5))))))
 (let (($x11771 (<= (+ (* (- 3.0) S_5) (* 4.0 S_3) (* (- 1.0) S_1)) 0.0)))
 (let ((?x11768 (* (- 2.0) S_5)))
 (let ((?x4046 (* (- 2.0) A_2)))
 (let ((?x4296 (* 2.0 A_4)))
 (let ((?x1629 (* 2.0 A_1)))
 (let ((?x1628 (* (- 2.0) L_1)))
 (let (($x11775 (<= (+ ?x11768 (* 3.0 S_3) ?x416) 0.0)))
 (let (($x1211 (<= (+ (* (- 1.0) L_1) A_4 (* (- 1.0) S_5)) 0.0)))
 (let (($x9722 (<= (+ (* (- (/ 2.0 3.0)) S_5) (* (/ 5.0 3.0) S_1) (* (- 1.0) S_0)) 0.0)))
 (let (($x163963 (or $x1211 $x9722 (<= (+ ?x1628 ?x1629 ?x4296 ?x4046 ?x11768 S_1 (* (- 1.0) S_0)) 0.0))))
 (let (($x80715 (<= (+ (* (- 1.0) L_1) A_1 A_4 (* (- 1.0) A_2) (* (- 1.0) S_5)) (- 5.0))))
 (let (($x75969 (<= (+ (* (- 1.0) S_5) S_0) (- 20.0))))
 (let (($x74097 (<= (+ (* (- (/ 1.0 3.0)) L_1) (* (/ 1.0 3.0) A_1) (* (- (/ 1.0 3.0)) S_5)) (- 5.0))))
 (let (($x11811 (<= (+ (* (- 1.0) A_0) (* (- 3.0) S_5) (* 4.0 S_3) L_0) 0.0)))
 (let ((?x410 (* (- 1.0) S_1)))
 (let ((?x11764 (* (- 3.0) S_5)))
 (let ((?x4419 (* (- 3.0) A_2)))
 (let ((?x4175 (* 3.0 A_4)))
 (let ((?x12403 (* 3.0 A_1)))
 (let ((?x10021 (* (- 3.0) L_1)))
 (let (($x25764 (<= (+ ?x10021 ?x12403 ?x4175 ?x4419 ?x11764 S_3 ?x410) 0.0)))
 (let (($x11789 (<= (+ (* (- 4.0) S_5) (* 5.0 S_3) (* (- 1.0) S_0)) 0.0)))
 (let (($x82105 (or $x56 (not (<= 0.0 (+ L_1 ?x443 S_4 (* (- 1.0) S_5) S_3))) $x75552)))
 (let ((?x437 (* (- 1.0) S_5)))
 (let ((?x1262 (* (- 1.0) A_0)))
 (let ((?x445 (* (- 1.0) A_2)))
 (let ((?x285 (* (- 1.0) L_1)))
 (let (($x10489 (<= (+ ?x1262 (* (- (/ 1.0 3.0)) S_5) (* (/ 4.0 3.0) S_1) L_0) 0.0)))
 (let (($x163387 (or $x1211 $x10489 (<= (+ ?x285 A_1 A_4 ?x445 ?x1262 ?x437 S_1 L_0) 0.0))))
 (let (($x2672 (<= (+ ?x437 (* 2.0 S_2) ?x410) 0.0)))
 (let (($x5284 (<= (+ (* (/ 1.0 3.0) L_1) (* (- (/ 1.0 3.0)) A_1) (* (- (/ 2.0 3.0)) S_5) S_3) 0.0)))
 (let (($x42682 (<= (+ L_1 ?x443 ?x451 A_2 S_5 (* (- 2.0) S_3) (* 2.0 S_1)) 0.0)))
 (let (($x163821 (or $x56 (not (<= 0.0 (+ L_1 ?x443 (* (/ 1.0 2.0) S_4) (* (/ 1.0 2.0) S_1)))))))
 (let (($x25913 (<= (+ L_1 ?x443 (* (- (/ 1.0 2.0)) S_4) ?x454 A_2 S_5 (* (/ 1.0 2.0) S_1)) 0.0)))
 (let ((?x260 (* (- 1.0) L_0)))
 (let ((?x5588 (* (- (/ 1.0 2.0)) S_0)))
 (let ((?x3155 (* (/ 1.0 2.0) S_1)))
 (let (($x610 (not (<= 0.0 (+ ?x285 L_0)))))
 (let (($x161482 (or $x610 $x1211 $x9722 (<= (+ A_1 A_4 ?x445 ?x437 ?x3155 ?x5588 ?x260) 0.0))))
 (let (($x162374 (or $x56 (<= (+ L_1 ?x443 ?x454 A_2 S_5 (* (- 1.0) S_3) S_1) 0.0))))
 (let (($x1548 (<= (+ ?x285 A_1 ?x416) 0.0)))
 (let (($x163708 (or $x1211 $x9722 (<= 0.0 (+ L_1 ?x443 S_4 (* (- 1.0) A_3) A_2)))))
 (let (($x80400 (or (<= (+ ?x10021 ?x12403 S_5 (* (- 4.0) S_3)) 0.0) (not (<= 0.0 (+ L_1 ?x443 (* (/ 1.0 5.0) S_5) (* (/ 4.0 5.0) S_0)))))))
 (let (($x7601 (<= (+ (* (/ 2.0 3.0) L_1) (* (- (/ 2.0 3.0)) A_1) (* (- (/ 1.0 3.0)) S_5) S_2) 0.0)))
 (let (($x2623 (<= (+ (* (- (/ 3.0 2.0)) S_5) (* (/ 5.0 2.0) S_2) (* (- 1.0) S_0)) 0.0)))
 (let (($x74553 (not (<= 0.0 (+ L_1 ?x443 S_4 (* (- (/ 1.0 3.0)) S_5) (* (/ 1.0 3.0) S_1))))))
 (let (($x25783 (<= (+ ?x10021 ?x12403 ?x4175 ?x4419 ?x1262 ?x11764 S_3 L_0) 0.0)))
 (let (($x50142 (or (<= (+ (* (/ 1.0 2.0) S_4) (* (- 1.0) S_3) (* (/ 1.0 2.0) S_0)) 0.0) (<= (+ ?x1628 ?x1629 S_4 (* (- 3.0) S_3)) 0.0))))
 (let (($x2613 (<= (+ ?x1262 ?x437 (* 2.0 S_2) L_0) 0.0)))
 (let (($x163636 (or $x1211 $x2613 (<= (+ ?x1628 ?x1629 ?x4296 ?x4046 ?x1262 ?x11768 S_2 L_0) 0.0))))
 (let ((?x1237 (* (- 1.0) S_0)))
 (let ((?x11786 (* (- 4.0) S_5)))
 (let ((?x12489 (* (- 4.0) A_2)))
 (let ((?x4049 (* 4.0 A_4)))
 (let ((?x11456 (* 4.0 A_1)))
 (let ((?x16722 (* (- 4.0) L_1)))
 (let (($x74600 (not (<= 0.0 (+ L_1 ?x443 S_4 (* (- (/ 1.0 4.0)) S_5) (* (/ 1.0 4.0) S_0))))))
 (let (($x75194 (not (<= 0.0 (+ L_1 ?x443 S_4 (* (- (/ 1.0 2.0)) S_5) (* (/ 1.0 2.0) S_2))))))
 (let (($x74589 (<= 0.0 (+ (* 3.0 L_1) (* (- 3.0) A_1) (* 2.0 S_4) S_0))))
 (let (($x79031 (or (<= (+ (* (- 1.0) S_3) S_0) (- 10.0)) (<= (+ ?x285 A_1 (* (- 1.0) S_3)) (- 5.0)))))
 (let (($x74906 (<= 0.0 (+ L_1 ?x443 (* (/ 1.0 5.0) S_5) (* (/ 4.0 5.0) S_0)))))
 (let (($x79027 (or (<= (+ (* (/ 2.0 5.0) S_5) (* (- 1.0) S_3) (* (/ 3.0 5.0) S_0)) 0.0) $x74906)))
 (let (($x16227 (<= (+ L_1 ?x443 ?x454 A_2 S_5 (* (- (/ 1.0 2.0)) S_3) (* (/ 1.0 2.0) S_0)) 0.0)))
 (let (($x160866 (or $x56 (not (<= 0.0 (+ L_1 ?x443 S_4 (* (- 1.0) S_3) S_1))))))
 (let (($x76105 (not (<= 0.0 (+ L_1 ?x443 S_4 (* (- (/ 1.0 2.0)) S_3) (* (/ 1.0 2.0) S_0))))))
 (let (($x23571 (or (<= (+ ?x430 (* (/ 3.0 5.0) S_5) (* (/ 2.0 5.0) S_0)) 0.0) (<= (+ ?x285 A_1 (* (- 2.0) S_4) S_5) 0.0))))
 (let (($x18110 (<= (+ L_1 ?x443 (* (- 2.0) S_4) ?x454 A_3 S_5 (* 2.0 S_2)) 0.0)))
 (let (($x72591 (or (<= (+ (* (- (/ 1.0 2.0)) L_1) (* (/ 1.0 2.0) A_1) (* (- (/ 1.0 2.0)) S_4)) (- 5.0)) (<= (+ ?x4096 ?x4103) (- 5.0)))))
 (let (($x137 (>= S_4 S_3)))
 (let (($x144 (>= A_3 A_2)))
 (let (($x128 (>= S_1 S_0)))
 (let (($x131 (>= S_2 S_1)))
 (let (($x134 (>= S_3 S_2)))
 (let (($x140 (>= S_5 S_4)))
 (let (($x142 (>= A_1 A_0)))
 (let (($x145 (>= A_4 A_3)))
 (let (($x146 (>= A_5 A_4)))
 (and (<= (+ A_1 ?x285) S_4) $x146 $x145 $x142 $x140 $x134 $x131 $x128 $x144 $x137 (or $x56 $x610) (<= (+ (* (- 2.0) S_4) ?x1262 (* 3.0 S_2) L_0) 0.0) $x72591 (<= (+ L_1 ?x454 S_5) 0.0) (or $x56 (not (<= 0.0 (+ L_1 ?x443 S_4 ?x416 S_0)))) (or $x56 $x18110) (or $x1548 (<= (+ (* (/ 1.0 4.0) S_4) ?x416 (* (/ 3.0 4.0) S_0)) 0.0)) $x23571 (or $x56 $x76105) $x160866 (or $x1548 (<= (+ ?x416 S_0) (- 5.0))) (or $x1548 (<= (+ (* (/ 1.0 5.0) S_5) ?x416 (* (/ 4.0 5.0) S_0)) 0.0)) (or $x1548 (<= (+ (* (/ 1.0 3.0) S_3) ?x416 ?x4124) 0.0)) (or $x56 $x16227) (or $x1211 $x11775 $x25764) $x79027 $x79031 (or $x56 (not $x74589)) (or $x56 $x75194 $x75552) (or $x56 (<= (+ L_1 ?x443 ?x430 ?x454 A_2 S_5 S_2) 0.0)) (or (not $x1548) $x56) (or $x56 $x74600 $x75552) (or $x1211 $x2623 (<= (+ ?x10021 ?x12403 ?x4175 ?x4419 ?x11764 S_2 ?x1237) 0.0)) (or $x1211 $x11789 (<= (+ ?x16722 ?x11456 ?x4049 ?x12489 ?x11786 S_3 ?x1237) 0.0)) (or $x2672 $x75552) $x163636 $x50142 (or $x1211 $x11789 $x25783) (or $x1211 $x11811 $x25783) (or $x56 $x74553 $x75552) (or $x10489 $x75552) (or (<= (+ (* (- (/ 1.0 2.0)) S_5) (* (/ 1.0 2.0) S_2)) (- 5.0)) $x75552) (or $x2623 $x75552) (or $x2613 $x75552) (or $x7601 $x75552) $x80400 $x163708 (or $x1548 (<= (+ L_1 ?x451 S_5 ?x416 S_0) 0.0)) $x162374 (<= (+ L_1 ?x430 ?x451 S_5 S_2) 0.0) (or $x74097 $x75552 $x75969) (or $x1211 (<= (+ (* (- (/ 1.0 3.0)) S_5) (* (/ 1.0 3.0) S_1)) (- 5.0)) $x80715) $x161482 (or $x56 $x25913) (or $x75552 (<= (+ (* (- (/ 1.0 3.0)) S_5) (* (/ 1.0 3.0) S_1)) (- 5.0))) $x163821 (or $x56 (<= (+ L_1 ?x443 ?x430 ?x451 A_2 S_5 S_1) 0.0)) (or $x56 $x42682) (or $x5284 $x75552) (or $x9722 $x75552) (or $x1211 $x2672 (<= (+ ?x1628 ?x1629 ?x4296 ?x4046 ?x11768 S_2 ?x410) 0.0)) $x163387 (or $x1211 (<= (+ ?x437 S_3) (- 5.0)) $x80715) (or $x1211 (<= (+ (* (- (/ 1.0 2.0)) S_5) (* (/ 1.0 2.0) S_2)) (- 5.0)) $x80715) (or (<= (+ ?x437 S_3) (- 5.0)) $x75552) $x82105 (or $x11789 $x75552) (or $x1211 $x11771 $x25764) (or $x11811 $x75552) (or $x1211 $x74097 $x75969 $x80715) $x163963 (or $x11775 $x75552) (or $x1211 $x11775 (<= (+ ?x1628 ?x1629 ?x4296 ?x4046 ?x11768 S_3 ?x416) 0.0)) (or $x56 (<= (+ L_1 ?x443 ?x454 A_2 S_5 ?x416 S_0) 0.0)) (or $x11771 $x75552) (or $x56 $x36211) (or $x56 $x47573) (or $x56 (<= ?x17354 0.0)) (or $x56 $x19402) (or $x56 $x62459) $x65095 (or (<= (+ L_1 ?x4096 ?x451 S_5 ?x4103) 0.0) $x23535) (or $x56 (<= (+ L_1 ?x443 ?x4096 ?x454 A_2 S_5 ?x4103) 0.0)) $x162344 (or $x56 $x26178) (or $x56 $x20691) $x161758 $x39 (not (>= (+ L_1 S_4 ?x445) 0.0)) $x1255 (<= (+ ?x1262 S_0 L_0) 0.0) (<= (+ L_1 ?x443 S_1) 0.0) (<= (+ ?x430 S_2) (- 5.0)) (<= (+ (* (- 1.0) S_3) S_1) (- 5.0)) (<= (+ S_5 (* (- 4.0) S_3) (* 3.0 S_1)) 0.0) (<= (+ (* (- (/ 1.0 2.0)) S_4) ?x3155) (- 5.0)) $x3099 (<= (+ (* (- 2.0) S_4) (* 3.0 S_2) ?x410) 0.0) (<= (+ ?x430 ?x2701 ?x3155) 0.0) (<= (+ (* (- 2.0) S_3) (* 3.0 S_1) ?x1237) 0.0) (<= (+ ?x430 (* 2.0 S_1) ?x1237) 0.0) (<= (+ (* (- 3.0) S_4) (* 4.0 S_2) ?x1237) 0.0) $x2596 (<= (+ S_4 (* (- 3.0) S_3) (* 2.0 S_1)) 0.0) (<= (+ (* (- 3.0) S_4) S_5 (* 2.0 S_2)) 0.0) (<= (+ L_1 ?x451 S_5 (* (- 1.0) S_3) S_1) 0.0) $x13122)))))))))))))))))))))))))))))))))))))))))))))))))))))))))))))))))))))))))))))))))))))))))))))))))))))))))))))
(check-sat)
